NAME
ROWS
 N  OBJ00000 
 L  ROW00001
 L  ROW00002
COLUMNS
    MARK0000  'MARKER'                 'INTORG'
    COL00001  OBJ00000   -1.50000E+00
    COL00001  ROW00001   1.00000E+00
    COL00002  OBJ00000   -4.00000E+00
    COL00002  ROW00002   1.00000E+00
    COL00003  OBJ00000   -16.0000E+00
    COL00003  ROW00001   2.00000E+00
    COL00003  ROW00002   6.00000E+00
    COL00004  OBJ00000   -19.0000E+00
    COL00004  ROW00001   3.00000E+00
    COL00004  ROW00002   1.00000E+00
    COL00005  OBJ00000   -23.0000E+00
    COL00005  ROW00001   4.00000E+00
    COL00005  ROW00002   3.00000E+00
    COL00006  OBJ00000   -28.0000E+00
    COL00006  ROW00001   5.00000E+00
    COL00006  ROW00002   2.00000E+00
    MARK0001  'MARKER'                 'INTEND'
RHS
    RHS       ROW00001   5.00000E+00
    RHS       ROW00002   5.00000E+00
BOUNDS
 UP BND       COL00002   5.00000E+00
 UP BND       COL00003   1.00000E+00
 UP BND       COL00004   1.00000E+00
 UP BND       COL00005   1.00000E+00
 UP BND       COL00006   1.00000E+00
ENDATA
